(declare-fun coord_x (Int) Int)
(declare-fun coord_y (Int) Int)
(assert (and (>= (select coord_x 0) 0) (<= (select coord_x 0) 14)))
(assert (and (>= (select coord_x 1) 0) (<= (select coord_x 1) 14)))
(assert (and (>= (select coord_x 2) 0) (<= (select coord_x 2) 14)))
(assert (and (>= (select coord_x 3) 0) (<= (select coord_x 3) 14)))
(assert (and (>= (select coord_x 4) 0) (<= (select coord_x 4) 14)))
(assert (and (>= (select coord_x 5) 0) (<= (select coord_x 5) 14)))
(assert (and (>= (select coord_x 6) 0) (<= (select coord_x 6) 14)))
(assert (and (>= (select coord_x 7) 0) (<= (select coord_x 7) 14)))
(assert (and (>= (select coord_x 8) 0) (<= (select coord_x 8) 14)))
(assert (and (>= (select coord_x 9) 0) (<= (select coord_x 9) 14)))
(assert (and (>= (select coord_x 10) 0) (<= (select coord_x 10) 14)))
(assert (and (>= (select coord_x 11) 0) (<= (select coord_x 11) 14)))
(assert (and (>= (select coord_y 0) 0) (<= (select coord_y 0) 73)))
(assert (and (>= (select coord_y 1) 0) (<= (select coord_y 1) 73)))
(assert (and (>= (select coord_y 2) 0) (<= (select coord_y 2) 73)))
(assert (and (>= (select coord_y 3) 0) (<= (select coord_y 3) 73)))
(assert (and (>= (select coord_y 4) 0) (<= (select coord_y 4) 73)))
(assert (and (>= (select coord_y 5) 0) (<= (select coord_y 5) 73)))
(assert (and (>= (select coord_y 6) 0) (<= (select coord_y 6) 73)))
(assert (and (>= (select coord_y 7) 0) (<= (select coord_y 7) 73)))
(assert (and (>= (select coord_y 8) 0) (<= (select coord_y 8) 73)))
(assert (and (>= (select coord_y 9) 0) (<= (select coord_y 9) 73)))
(assert (and (>= (select coord_y 10) 0) (<= (select coord_y 10) 73)))
(assert (and (>= (select coord_y 11) 0) (<= (select coord_y 11) 73)))
(assert (and (>= l 17) (<= l 76)))
(assert (or (<= (+ (select coord_x 0) 3) (select coord_x 1)) (<= (+ (select coord_y 0) 3) (select coord_y 1)) (>= (- (select coord_x 0) 3) (select coord_x 1)) (>= (- (select coord_y 0) 3) (select coord_y 1))))
(assert (or (<= (+ (select coord_x 0) 3) (select coord_x 2)) (<= (+ (select coord_y 0) 3) (select coord_y 2)) (>= (- (select coord_x 0) 3) (select coord_x 2)) (>= (- (select coord_y 0) 3) (select coord_y 2))))
(assert (or (<= (+ (select coord_x 0) 3) (select coord_x 3)) (<= (+ (select coord_y 0) 3) (select coord_y 3)) (>= (- (select coord_x 0) 3) (select coord_x 3)) (>= (- (select coord_y 0) 3) (select coord_y 3))))
(assert (or (<= (+ (select coord_x 0) 3) (select coord_x 4)) (<= (+ (select coord_y 0) 3) (select coord_y 4)) (>= (- (select coord_x 0) 3) (select coord_x 4)) (>= (- (select coord_y 0) 3) (select coord_y 4))))
(assert (or (<= (+ (select coord_x 0) 3) (select coord_x 5)) (<= (+ (select coord_y 0) 3) (select coord_y 5)) (>= (- (select coord_x 0) 3) (select coord_x 5)) (>= (- (select coord_y 0) 3) (select coord_y 5))))
(assert (or (<= (+ (select coord_x 0) 3) (select coord_x 6)) (<= (+ (select coord_y 0) 3) (select coord_y 6)) (>= (- (select coord_x 0) 3) (select coord_x 6)) (>= (- (select coord_y 0) 3) (select coord_y 6))))
(assert (or (<= (+ (select coord_x 0) 3) (select coord_x 7)) (<= (+ (select coord_y 0) 3) (select coord_y 7)) (>= (- (select coord_x 0) 4) (select coord_x 7)) (>= (- (select coord_y 0) 3) (select coord_y 7))))
(assert (or (<= (+ (select coord_x 0) 3) (select coord_x 8)) (<= (+ (select coord_y 0) 3) (select coord_y 8)) (>= (- (select coord_x 0) 4) (select coord_x 8)) (>= (- (select coord_y 0) 3) (select coord_y 8))))
(assert (or (<= (+ (select coord_x 0) 3) (select coord_x 9)) (<= (+ (select coord_y 0) 3) (select coord_y 9)) (>= (- (select coord_x 0) 4) (select coord_x 9)) (>= (- (select coord_y 0) 3) (select coord_y 9))))
(assert (or (<= (+ (select coord_x 0) 3) (select coord_x 10)) (<= (+ (select coord_y 0) 3) (select coord_y 10)) (>= (- (select coord_x 0) 7) (select coord_x 10)) (>= (- (select coord_y 0) 3) (select coord_y 10))))
(assert (or (<= (+ (select coord_x 0) 3) (select coord_x 11)) (<= (+ (select coord_y 0) 3) (select coord_y 11)) (>= (- (select coord_x 0) 7) (select coord_x 11)) (>= (- (select coord_y 0) 3) (select coord_y 11))))
(assert (or (<= (+ (select coord_x 1) 3) (select coord_x 2)) (<= (+ (select coord_y 1) 4) (select coord_y 2)) (>= (- (select coord_x 1) 3) (select coord_x 2)) (>= (- (select coord_y 1) 4) (select coord_y 2))))
(assert (or (<= (+ (select coord_x 1) 3) (select coord_x 3)) (<= (+ (select coord_y 1) 4) (select coord_y 3)) (>= (- (select coord_x 1) 3) (select coord_x 3)) (>= (- (select coord_y 1) 4) (select coord_y 3))))
(assert (or (<= (+ (select coord_x 1) 3) (select coord_x 4)) (<= (+ (select coord_y 1) 4) (select coord_y 4)) (>= (- (select coord_x 1) 3) (select coord_x 4)) (>= (- (select coord_y 1) 4) (select coord_y 4))))
(assert (or (<= (+ (select coord_x 1) 3) (select coord_x 5)) (<= (+ (select coord_y 1) 4) (select coord_y 5)) (>= (- (select coord_x 1) 3) (select coord_x 5)) (>= (- (select coord_y 1) 4) (select coord_y 5))))
(assert (or (<= (+ (select coord_x 1) 3) (select coord_x 6)) (<= (+ (select coord_y 1) 4) (select coord_y 6)) (>= (- (select coord_x 1) 3) (select coord_x 6)) (>= (- (select coord_y 1) 4) (select coord_y 6))))
(assert (or (<= (+ (select coord_x 1) 3) (select coord_x 7)) (<= (+ (select coord_y 1) 4) (select coord_y 7)) (>= (- (select coord_x 1) 4) (select coord_x 7)) (>= (- (select coord_y 1) 4) (select coord_y 7))))
(assert (or (<= (+ (select coord_x 1) 3) (select coord_x 8)) (<= (+ (select coord_y 1) 4) (select coord_y 8)) (>= (- (select coord_x 1) 4) (select coord_x 8)) (>= (- (select coord_y 1) 4) (select coord_y 8))))
(assert (or (<= (+ (select coord_x 1) 3) (select coord_x 9)) (<= (+ (select coord_y 1) 4) (select coord_y 9)) (>= (- (select coord_x 1) 4) (select coord_x 9)) (>= (- (select coord_y 1) 4) (select coord_y 9))))
(assert (or (<= (+ (select coord_x 1) 3) (select coord_x 10)) (<= (+ (select coord_y 1) 4) (select coord_y 10)) (>= (- (select coord_x 1) 7) (select coord_x 10)) (>= (- (select coord_y 1) 4) (select coord_y 10))))
(assert (or (<= (+ (select coord_x 1) 3) (select coord_x 11)) (<= (+ (select coord_y 1) 4) (select coord_y 11)) (>= (- (select coord_x 1) 7) (select coord_x 11)) (>= (- (select coord_y 1) 4) (select coord_y 11))))
(assert (or (<= (+ (select coord_x 2) 3) (select coord_x 3)) (<= (+ (select coord_y 2) 5) (select coord_y 3)) (>= (- (select coord_x 2) 3) (select coord_x 3)) (>= (- (select coord_y 2) 5) (select coord_y 3))))
(assert (or (<= (+ (select coord_x 2) 3) (select coord_x 4)) (<= (+ (select coord_y 2) 5) (select coord_y 4)) (>= (- (select coord_x 2) 3) (select coord_x 4)) (>= (- (select coord_y 2) 5) (select coord_y 4))))
(assert (or (<= (+ (select coord_x 2) 3) (select coord_x 5)) (<= (+ (select coord_y 2) 5) (select coord_y 5)) (>= (- (select coord_x 2) 3) (select coord_x 5)) (>= (- (select coord_y 2) 5) (select coord_y 5))))
(assert (or (<= (+ (select coord_x 2) 3) (select coord_x 6)) (<= (+ (select coord_y 2) 5) (select coord_y 6)) (>= (- (select coord_x 2) 3) (select coord_x 6)) (>= (- (select coord_y 2) 5) (select coord_y 6))))
(assert (or (<= (+ (select coord_x 2) 3) (select coord_x 7)) (<= (+ (select coord_y 2) 5) (select coord_y 7)) (>= (- (select coord_x 2) 4) (select coord_x 7)) (>= (- (select coord_y 2) 5) (select coord_y 7))))
(assert (or (<= (+ (select coord_x 2) 3) (select coord_x 8)) (<= (+ (select coord_y 2) 5) (select coord_y 8)) (>= (- (select coord_x 2) 4) (select coord_x 8)) (>= (- (select coord_y 2) 5) (select coord_y 8))))
(assert (or (<= (+ (select coord_x 2) 3) (select coord_x 9)) (<= (+ (select coord_y 2) 5) (select coord_y 9)) (>= (- (select coord_x 2) 4) (select coord_x 9)) (>= (- (select coord_y 2) 5) (select coord_y 9))))
(assert (or (<= (+ (select coord_x 2) 3) (select coord_x 10)) (<= (+ (select coord_y 2) 5) (select coord_y 10)) (>= (- (select coord_x 2) 7) (select coord_x 10)) (>= (- (select coord_y 2) 5) (select coord_y 10))))
(assert (or (<= (+ (select coord_x 2) 3) (select coord_x 11)) (<= (+ (select coord_y 2) 5) (select coord_y 11)) (>= (- (select coord_x 2) 7) (select coord_x 11)) (>= (- (select coord_y 2) 5) (select coord_y 11))))
(assert (or (<= (+ (select coord_x 3) 3) (select coord_x 4)) (<= (+ (select coord_y 3) 6) (select coord_y 4)) (>= (- (select coord_x 3) 3) (select coord_x 4)) (>= (- (select coord_y 3) 6) (select coord_y 4))))
(assert (or (<= (+ (select coord_x 3) 3) (select coord_x 5)) (<= (+ (select coord_y 3) 6) (select coord_y 5)) (>= (- (select coord_x 3) 3) (select coord_x 5)) (>= (- (select coord_y 3) 6) (select coord_y 5))))
(assert (or (<= (+ (select coord_x 3) 3) (select coord_x 6)) (<= (+ (select coord_y 3) 6) (select coord_y 6)) (>= (- (select coord_x 3) 3) (select coord_x 6)) (>= (- (select coord_y 3) 6) (select coord_y 6))))
(assert (or (<= (+ (select coord_x 3) 3) (select coord_x 7)) (<= (+ (select coord_y 3) 6) (select coord_y 7)) (>= (- (select coord_x 3) 4) (select coord_x 7)) (>= (- (select coord_y 3) 6) (select coord_y 7))))
(assert (or (<= (+ (select coord_x 3) 3) (select coord_x 8)) (<= (+ (select coord_y 3) 6) (select coord_y 8)) (>= (- (select coord_x 3) 4) (select coord_x 8)) (>= (- (select coord_y 3) 6) (select coord_y 8))))
(assert (or (<= (+ (select coord_x 3) 3) (select coord_x 9)) (<= (+ (select coord_y 3) 6) (select coord_y 9)) (>= (- (select coord_x 3) 4) (select coord_x 9)) (>= (- (select coord_y 3) 6) (select coord_y 9))))
(assert (or (<= (+ (select coord_x 3) 3) (select coord_x 10)) (<= (+ (select coord_y 3) 6) (select coord_y 10)) (>= (- (select coord_x 3) 7) (select coord_x 10)) (>= (- (select coord_y 3) 6) (select coord_y 10))))
(assert (or (<= (+ (select coord_x 3) 3) (select coord_x 11)) (<= (+ (select coord_y 3) 6) (select coord_y 11)) (>= (- (select coord_x 3) 7) (select coord_x 11)) (>= (- (select coord_y 3) 6) (select coord_y 11))))
(assert (or (<= (+ (select coord_x 4) 3) (select coord_x 5)) (<= (+ (select coord_y 4) 7) (select coord_y 5)) (>= (- (select coord_x 4) 3) (select coord_x 5)) (>= (- (select coord_y 4) 7) (select coord_y 5))))
(assert (or (<= (+ (select coord_x 4) 3) (select coord_x 6)) (<= (+ (select coord_y 4) 7) (select coord_y 6)) (>= (- (select coord_x 4) 3) (select coord_x 6)) (>= (- (select coord_y 4) 7) (select coord_y 6))))
(assert (or (<= (+ (select coord_x 4) 3) (select coord_x 7)) (<= (+ (select coord_y 4) 7) (select coord_y 7)) (>= (- (select coord_x 4) 4) (select coord_x 7)) (>= (- (select coord_y 4) 7) (select coord_y 7))))
(assert (or (<= (+ (select coord_x 4) 3) (select coord_x 8)) (<= (+ (select coord_y 4) 7) (select coord_y 8)) (>= (- (select coord_x 4) 4) (select coord_x 8)) (>= (- (select coord_y 4) 7) (select coord_y 8))))
(assert (or (<= (+ (select coord_x 4) 3) (select coord_x 9)) (<= (+ (select coord_y 4) 7) (select coord_y 9)) (>= (- (select coord_x 4) 4) (select coord_x 9)) (>= (- (select coord_y 4) 7) (select coord_y 9))))
(assert (or (<= (+ (select coord_x 4) 3) (select coord_x 10)) (<= (+ (select coord_y 4) 7) (select coord_y 10)) (>= (- (select coord_x 4) 7) (select coord_x 10)) (>= (- (select coord_y 4) 7) (select coord_y 10))))
(assert (or (<= (+ (select coord_x 4) 3) (select coord_x 11)) (<= (+ (select coord_y 4) 7) (select coord_y 11)) (>= (- (select coord_x 4) 7) (select coord_x 11)) (>= (- (select coord_y 4) 7) (select coord_y 11))))
(assert (or (<= (+ (select coord_x 5) 3) (select coord_x 6)) (<= (+ (select coord_y 5) 8) (select coord_y 6)) (>= (- (select coord_x 5) 3) (select coord_x 6)) (>= (- (select coord_y 5) 8) (select coord_y 6))))
(assert (or (<= (+ (select coord_x 5) 3) (select coord_x 7)) (<= (+ (select coord_y 5) 8) (select coord_y 7)) (>= (- (select coord_x 5) 4) (select coord_x 7)) (>= (- (select coord_y 5) 8) (select coord_y 7))))
(assert (or (<= (+ (select coord_x 5) 3) (select coord_x 8)) (<= (+ (select coord_y 5) 8) (select coord_y 8)) (>= (- (select coord_x 5) 4) (select coord_x 8)) (>= (- (select coord_y 5) 8) (select coord_y 8))))
(assert (or (<= (+ (select coord_x 5) 3) (select coord_x 9)) (<= (+ (select coord_y 5) 8) (select coord_y 9)) (>= (- (select coord_x 5) 4) (select coord_x 9)) (>= (- (select coord_y 5) 8) (select coord_y 9))))
(assert (or (<= (+ (select coord_x 5) 3) (select coord_x 10)) (<= (+ (select coord_y 5) 8) (select coord_y 10)) (>= (- (select coord_x 5) 7) (select coord_x 10)) (>= (- (select coord_y 5) 8) (select coord_y 10))))
(assert (or (<= (+ (select coord_x 5) 3) (select coord_x 11)) (<= (+ (select coord_y 5) 8) (select coord_y 11)) (>= (- (select coord_x 5) 7) (select coord_x 11)) (>= (- (select coord_y 5) 8) (select coord_y 11))))
(assert (or (<= (+ (select coord_x 6) 3) (select coord_x 7)) (<= (+ (select coord_y 6) 9) (select coord_y 7)) (>= (- (select coord_x 6) 4) (select coord_x 7)) (>= (- (select coord_y 6) 9) (select coord_y 7))))
(assert (or (<= (+ (select coord_x 6) 3) (select coord_x 8)) (<= (+ (select coord_y 6) 9) (select coord_y 8)) (>= (- (select coord_x 6) 4) (select coord_x 8)) (>= (- (select coord_y 6) 9) (select coord_y 8))))
(assert (or (<= (+ (select coord_x 6) 3) (select coord_x 9)) (<= (+ (select coord_y 6) 9) (select coord_y 9)) (>= (- (select coord_x 6) 4) (select coord_x 9)) (>= (- (select coord_y 6) 9) (select coord_y 9))))
(assert (or (<= (+ (select coord_x 6) 3) (select coord_x 10)) (<= (+ (select coord_y 6) 9) (select coord_y 10)) (>= (- (select coord_x 6) 7) (select coord_x 10)) (>= (- (select coord_y 6) 9) (select coord_y 10))))
(assert (or (<= (+ (select coord_x 6) 3) (select coord_x 11)) (<= (+ (select coord_y 6) 9) (select coord_y 11)) (>= (- (select coord_x 6) 7) (select coord_x 11)) (>= (- (select coord_y 6) 9) (select coord_y 11))))
(assert (or (<= (+ (select coord_x 7) 4) (select coord_x 8)) (<= (+ (select coord_y 7) 3) (select coord_y 8)) (>= (- (select coord_x 7) 4) (select coord_x 8)) (>= (- (select coord_y 7) 3) (select coord_y 8))))
(assert (or (<= (+ (select coord_x 7) 4) (select coord_x 9)) (<= (+ (select coord_y 7) 3) (select coord_y 9)) (>= (- (select coord_x 7) 4) (select coord_x 9)) (>= (- (select coord_y 7) 3) (select coord_y 9))))
(assert (or (<= (+ (select coord_x 7) 4) (select coord_x 10)) (<= (+ (select coord_y 7) 3) (select coord_y 10)) (>= (- (select coord_x 7) 7) (select coord_x 10)) (>= (- (select coord_y 7) 3) (select coord_y 10))))
(assert (or (<= (+ (select coord_x 7) 4) (select coord_x 11)) (<= (+ (select coord_y 7) 3) (select coord_y 11)) (>= (- (select coord_x 7) 7) (select coord_x 11)) (>= (- (select coord_y 7) 3) (select coord_y 11))))
(assert (or (<= (+ (select coord_x 8) 4) (select coord_x 9)) (<= (+ (select coord_y 8) 8) (select coord_y 9)) (>= (- (select coord_x 8) 4) (select coord_x 9)) (>= (- (select coord_y 8) 8) (select coord_y 9))))
(assert (or (<= (+ (select coord_x 8) 4) (select coord_x 10)) (<= (+ (select coord_y 8) 8) (select coord_y 10)) (>= (- (select coord_x 8) 7) (select coord_x 10)) (>= (- (select coord_y 8) 8) (select coord_y 10))))
(assert (or (<= (+ (select coord_x 8) 4) (select coord_x 11)) (<= (+ (select coord_y 8) 8) (select coord_y 11)) (>= (- (select coord_x 8) 7) (select coord_x 11)) (>= (- (select coord_y 8) 8) (select coord_y 11))))
(assert (or (<= (+ (select coord_x 9) 4) (select coord_x 10)) (<= (+ (select coord_y 9) 14) (select coord_y 10)) (>= (- (select coord_x 9) 7) (select coord_x 10)) (>= (- (select coord_y 9) 14) (select coord_y 10))))
(assert (or (<= (+ (select coord_x 9) 4) (select coord_x 11)) (<= (+ (select coord_y 9) 14) (select coord_y 11)) (>= (- (select coord_x 9) 7) (select coord_x 11)) (>= (- (select coord_y 9) 14) (select coord_y 11))))
(assert (or (<= (+ (select coord_x 10) 7) (select coord_x 11)) (<= (+ (select coord_y 10) 3) (select coord_y 11)) (>= (- (select coord_x 10) 7) (select coord_x 11)) (>= (- (select coord_y 10) 3) (select coord_y 11))))
(assert (and (<= (+ (select coord_x 0) 3) 17) (<= (+ (select coord_y 0) 3) l)))
(assert (and (<= (+ (select coord_x 1) 3) 17) (<= (+ (select coord_y 1) 4) l)))
(assert (and (<= (+ (select coord_x 2) 3) 17) (<= (+ (select coord_y 2) 5) l)))
(assert (and (<= (+ (select coord_x 3) 3) 17) (<= (+ (select coord_y 3) 6) l)))
(assert (and (<= (+ (select coord_x 4) 3) 17) (<= (+ (select coord_y 4) 7) l)))
(assert (and (<= (+ (select coord_x 5) 3) 17) (<= (+ (select coord_y 5) 8) l)))
(assert (and (<= (+ (select coord_x 6) 3) 17) (<= (+ (select coord_y 6) 9) l)))
(assert (and (<= (+ (select coord_x 7) 4) 17) (<= (+ (select coord_y 7) 3) l)))
(assert (and (<= (+ (select coord_x 8) 4) 17) (<= (+ (select coord_y 8) 8) l)))
(assert (and (<= (+ (select coord_x 9) 4) 17) (<= (+ (select coord_y 9) 14) l)))
(assert (and (<= (+ (select coord_x 10) 7) 17) (<= (+ (select coord_y 10) 3) l)))
(assert (and (<= (+ (select coord_x 11) 7) 17) (<= (+ (select coord_y 11) 6) l)))
(check-sat)
